
Gurobi 10.0.1 (linux64) logging started Sun Nov 26 15:37:29 2023

Set parameter LogFile to value "ArtificialInstance/ExperimentV2/S2T5K1/BaSp/gurobi1.txt"
Gurobi Optimizer version 10.0.1 build v10.0.1rc0 (linux64)

CPU model: AMD EPYC 7H12 64-Core Processor, instruction set [SSE2|AVX|AVX2]
Thread count: 128 physical cores, 128 logical processors, using up to 32 threads

Academic license 656792 - for non-commercial use only - registered to b.___@student.vu.nl
Optimize a model with 1420 rows, 2160 columns and 7040 nonzeros
Model fingerprint: 0xf73aec0d
Variable types: 0 continuous, 2160 integer (2160 binary)
Coefficient statistics:
  Matrix range     [1e+00, 1e+00]
  Objective range  [2e+00, 2e+01]
  Bounds range     [1e+00, 1e+00]
  RHS range        [1e+00, 1e+00]
Found heuristic solution: objective 641.0328958
Presolve time: 0.01s
Presolved: 1420 rows, 2160 columns, 7040 nonzeros
Variable types: 0 continuous, 2160 integer (2160 binary)

Root relaxation: objective 3.458250e+01, 1016 iterations, 0.02 seconds (0.01 work units)

    Nodes    |    Current Node    |     Objective Bounds      |     Work
 Expl Unexpl |  Obj  Depth IntInf | Incumbent    BestBd   Gap | It/Node Time

     0     0   34.58250    0  210  641.03290   34.58250  94.6%     -    0s
H    0     0                     160.8507941   34.58250  78.5%     -    0s
H    0     0                     154.1635521   34.58250  77.6%     -    0s
H    0     0                      75.1269994   34.58250  54.0%     -    0s
     0     0   39.46086    0  220   75.12700   39.46086  47.5%     -    0s
H    0     0                      51.4746057   39.46086  23.3%     -    0s
     0     0   43.24201    0  247   51.47461   43.24201  16.0%     -    0s
     0     0   44.20877    0  394   51.47461   44.20877  14.1%     -    0s
     0     0   44.24678    0  394   51.47461   44.24678  14.0%     -    0s
     0     0   45.20766    0  430   51.47461   45.20766  12.2%     -    0s
     0     0   45.41706    0  338   51.47461   45.41706  11.8%     -    0s
     0     0   45.44594    0  343   51.47461   45.44594  11.7%     -    0s
     0     0   45.64156    0  450   51.47461   45.64156  11.3%     -    0s
     0     0   45.64156    0  200   51.47461   45.64156  11.3%     -    0s
     0     0   45.64156    0  329   51.47461   45.64156  11.3%     -    0s
     0     0   45.64156    0  226   51.47461   45.64156  11.3%     -    0s
     0     0   45.64156    0  367   51.47461   45.64156  11.3%     -    0s
     0     0   45.64156    0  401   51.47461   45.64156  11.3%     -    0s
     0     0   45.64156    0  374   51.47461   45.64156  11.3%     -    0s
     0     0   45.64156    0  374   51.47461   45.64156  11.3%     -    0s
     0     0   45.64156    0  412   51.47461   45.64156  11.3%     -    0s
     0     0   45.64156    0  414   51.47461   45.64156  11.3%     -    0s
     0     0   46.63216    0  440   51.47461   46.63216  9.41%     -    0s
     0     0   47.02375    0  422   51.47461   47.02375  8.65%     -    0s
     0     0   47.13083    0  454   51.47461   47.13083  8.44%     -    0s
     0     0   47.17861    0  455   51.47461   47.17861  8.35%     -    0s
     0     0   48.90272    0  414   51.47461   48.90272  5.00%     -    0s
     0     0   48.91604    0  384   51.47461   48.91604  4.97%     -    0s
     0     2   48.91604    0  384   51.47461   48.91604  4.97%     -    1s
*   64     5               7      51.4617219   49.37731  4.05%  88.7    1s

Cutting planes:
  Gomory: 9
  Zero half: 42
  RLT: 39

Explored 80 nodes (13423 simplex iterations) in 1.45 seconds (0.82 work units)
Thread count was 32 (of 128 available processors)

Solution count 6: 51.4617 51.4746 75.127 ... 641.033

Optimal solution found (tolerance 1.00e-04)
Best objective 5.146172189898e+01, best bound 5.146172189898e+01, gap 0.0000%
